12 48 3 10
12 3 16 19 4 12 16 17 15 11 16 9 15 18 15 8 4 14 10 6 9 7 1 3 7 6 14 18 20 15 1 14 13 13 6 10 3 12 10 1 2 7 1 8 15 14 18 18 
14.85 2.6 13.43 15.05 1.12 14.82 8.23 7.83 14.86 1.47 9.03 13.49 3.09 8.82 5.58 5.18 13.87 5.86 6.9 9.01 6.43 2.08 7.61 8.02 4.14 15.04 7.82 13.52 7.87 8.13 4.68 14.92 7.73 4.99 5.37 11.81 6.51 8.4 7.79 10.79 0.23 2.24 7.27 11.29 14.07 2.76 11.52 3.95 
10.97 12.36 4.2 11.07 0.27 9.9 2.81 9.2 6.28 11.6 3.03 11.83 3.19 8.08 6.8 5.71 4.63 3.61 2.63 2.53 14.68 4.85 1.06 2.55 9.88 6.35 1.53 14.22 6.91 14.5 6.25 7.25 5.49 9.51 5.22 13.07 8.71 12.45 12.86 4.57 10.06 3.14 4.68 1.95 10.67 4.25 7.05 14.68 
15.98 4.76 7.7 14.23 7.23 10.77 11.8 10.62 12.48 14.68 15.65 0.16 4.57 15.59 10.04 10.57 13.88 1.72 5.32 5.43 11.19 7.89 2.06 1.65 9.36 11.09 15.26 15.25 1.02 10.8 1.07 11.73 4.72 6.59 9.12 13.33 14.44 7.12 12.46 6.42 5.99 13.14 14.41 9.92 15.16 7.61 0.15 1.17 
8 8 8 8 8 8 8 8 8 8 8 8 8 8 8 8 8 8 8 8 8 8 8 8 8 8 8 8 8 8 8 8 8 8 8 8 8 8 8 8 8 8 8 8 8 8 8 8 
3.63 12.29 13.36 1.88 7.32 7.77 4.65 3.76 3.25 9.63 3.54 2.37 13.42 6.95 14.45 8.06 15.2 1.7 6.36 5.23 3.73 2.13 12.57 14.64 0.14 11.68 0.15 11.51 8.71 9.01 9.15 11.27 3.49 1.99 12.79 11.36 9.83 13.25 6.21 5.4 15.18 12.25 9.23 11.31 3.3 4.16 13.9 14.14 
7.51 14.78 6.66 6.84 7.89 3.15 9.68 10.99 14.82 15.73 10.01 11.65 4.37 4.22 4.43 7.02 15.94 11.67 8.88 1.18 6.17 5.28 8.7 10.29 9.64 7.16 7.69 10.39 8.9 2.07 9.9 14.18 9.86 13.76 3.16 11.72 5.3 9.41 0.09 6.4 2.93 14.77 6.43 1.14 2.09 1.26 13.56 8.37 
10.23 3.95 6.21 0.62 5.99 11.22 15.87 12.8 4.07 0.23 9.74 6.56 5.95 13.84 2.93 2.41 5 3.52 4.38 5.32 11.03 5.07 15.49 12.86 7.53 7.58 15.23 0.71 7.05 5.82 0.24 8.77 10.43 4.15 12.57 4.5 10.73 4.81 8.79 2.44 0.9 3.14 8.57 1.39 1.78 14.23 9.04 1.87 
4.7 10.82 11.78 2.06 15.08 9.77 4.84 9.77 2.72 8.95 6.7 8.74 1.25 11.01 9.89 12.62 12.5 12.21 8.48 6.2 11.33 4.35 3.07 7.29 5 9.47 9.94 2.9 5.89 5.79 15.72 10.74 10.7 3.13 2.92 10.13 5.46 11.08 3.74 7.34 2.68 8.41 8.09 12.91 4.66 10.95 0.54 0.74 
15.31 4.88 0.54 11.46 2.21 5.45 12.06 0.73 3.73 11.42 9.77 14.32 4.22 8.88 7.8 10.67 7.82 6.76 2.26 10.29 7.94 9.59 0.56 6.66 15.88 13.61 10.21 7.97 6.39 15.82 9.43 7.77 0.47 15.78 0.39 15.67 4.6 6.21 11.5 2.13 9.53 15.33 7.66 1.25 14.49 13.76 0.15 9.9 
15.54 15.39 8.87 8.76 3.69 14.88 3.01 6.4 0.35 14.4 11.68 13.38 8.56 13.24 10.1 4.59 2.44 12.35 8.72 2.88 10.6 6.78 2.1 5.65 1.12 9.48 15.37 13.86 0.27 15.52 14.99 3.45 15.88 2.96 13.77 6.19 2.18 5.49 6.13 8.65 6.16 11.92 12.01 10.47 6.73 0.74 9.1 9.1 
6.25 6.82 12.61 4.58 6.59 2.38 10.5 5.86 0.71 15.01 8.78 4.21 15.57 13.68 8.24 8.84 7.27 9.39 12.72 2.39 3.18 11.42 0.37 14.63 11.29 9.4 5.8 12.79 2.91 10.7 2.26 11.32 5.39 14.74 8.15 1.19 7.41 2.84 0.43 3.82 0.31 5.74 12.35 6.75 1.77 7.61 6.02 6.23 
6.7 11.45 15.18 15.07 3.15 13.38 0.9 13.51 12.78 12.84 6.35 4.45 13.08 10.68 6.6 5.13 6.79 4.54 8.09 10.66 0.51 2.37 0.02 5.49 7.73 15.63 0.48 9.93 9.23 15.24 14.08 10.38 7.9 11.27 10.74 12.53 10.33 8.77 0.94 1.93 11.46 12.09 4.52 14.67 3.99 3.4 15.69 10.69 
1 1 1 1 1 1 1 1 1 1 1 1 1 1 1 1 1 1 1 1 1 1 1 1 1 1 1 1 1 1 1 1 1 1 1 1 1 1 1 1 1 1 1 1 1 1 1 1 
1 1 1 1 1 1 1 1 1 1 1 1 1 1 1 1 1 1 1 1 1 1 1 1 1 1 1 1 1 1 1 1 1 1 1 1 1 1 1 1 1 1 1 1 1 1 1 1 
1 1 1 1 1 1 1 1 1 1 1 1 1 1 1 1 1 1 1 1 1 1 1 1 1 1 1 1 1 1 1 1 1 1 1 1 1 1 1 1 1 1 1 1 1 1 1 1 
1 1 1 1 1 1 1 1 1 1 1 1 1 1 1 1 1 1 1 1 1 1 1 1 1 1 1 1 1 1 1 1 1 1 1 1 1 1 1 1 1 1 1 1 1 1 1 1 
1 1 1 1 1 1 1 1 1 1 1 1 1 1 1 1 1 1 1 1 1 1 1 1 1 1 1 1 1 1 1 1 1 1 1 1 1 1 1 1 1 1 1 1 1 1 1 1 
1 1 1 1 1 1 1 1 1 1 1 1 1 1 1 1 1 1 1 1 1 1 1 1 1 1 1 1 1 1 1 1 1 1 1 1 1 1 1 1 1 1 1 1 1 1 1 1 
1 1 1 1 1 1 1 1 1 1 1 1 1 1 1 1 1 1 1 1 1 1 1 1 1 1 1 1 1 1 1 1 1 1 1 1 1 1 1 1 1 1 1 1 1 1 1 1 
1 1 1 1 1 1 1 1 1 1 1 1 1 1 1 1 1 1 1 1 1 1 1 1 1 1 1 1 1 1 1 1 1 1 1 1 1 1 1 1 1 1 1 1 1 1 1 1 
1 1 1 1 1 1 1 1 1 1 1 1 1 1 1 1 1 1 1 1 1 1 1 1 1 1 1 1 1 1 1 1 1 1 1 1 1 1 1 1 1 1 1 1 1 1 1 1 
1 1 1 1 1 1 1 1 1 1 1 1 1 1 1 1 1 1 1 1 1 1 1 1 1 1 1 1 1 1 1 1 1 1 1 1 1 1 1 1 1 1 1 1 1 1 1 1 
1 1 1 1 1 1 1 1 1 1 1 1 1 1 1 1 1 1 1 1 1 1 1 1 1 1 1 1 1 1 1 1 1 1 1 1 1 1 1 1 1 1 1 1 1 1 1 1 
1 1 1 1 1 1 1 1 1 1 1 1 1 1 1 1 1 1 1 1 1 1 1 1 1 1 1 1 1 1 1 1 1 1 1 1 1 1 1 1 1 1 1 1 1 1 1 1 
0.01 0.01 0.01 0.01 0.01 0.01 0.01 0.01 0.01 0.01 0.01 0.01 0.01 0.01 0.01 0.01 0.01 0.01 0.01 0.01 0.01 0.01 0.01 0.01 0.01 0.01 0.01 0.01 0.01 0.01 0.01 0.01 0.01 0.01 0.01 0.01 0.01 0.01 0.01 0.01 0.01 0.01 0.01 0.01 0.01 0.01 0.01 0.01 
0.02 0.02 0.02 0.02 0.02 0.02 0.02 0.02 0.02 0.02 0.02 0.02 0.02 0.02 0.02 0.02 0.02 0.02 0.02 0.02 0.02 0.02 0.02 0.02 0.02 0.02 0.02 0.02 0.02 0.02 0.02 0.02 0.02 0.02 0.02 0.02 0.02 0.02 0.02 0.02 0.02 0.02 0.02 0.02 0.02 0.02 0.02 0.02 
0.03 0.03 0.03 0.03 0.03 0.03 0.03 0.03 0.03 0.03 0.03 0.03 0.03 0.03 0.03 0.03 0.03 0.03 0.03 0.03 0.03 0.03 0.03 0.03 0.03 0.03 0.03 0.03 0.03 0.03 0.03 0.03 0.03 0.03 0.03 0.03 0.03 0.03 0.03 0.03 0.03 0.03 0.03 0.03 0.03 0.03 0.03 0.03 
0.04 0.04 0.04 0.04 0.04 0.04 0.04 0.04 0.04 0.04 0.04 0.04 0.04 0.04 0.04 0.04 0.04 0.04 0.04 0.04 0.04 0.04 0.04 0.04 0.04 0.04 0.04 0.04 0.04 0.04 0.04 0.04 0.04 0.04 0.04 0.04 0.04 0.04 0.04 0.04 0.04 0.04 0.04 0.04 0.04 0.04 0.04 0.04 
0.125 0.125 0.125 0.125 0.125 0.125 0.125 0.125 0.125 0.125 0.125 0.125 0.125 0.125 0.125 0.125 0.125 0.125 0.125 0.125 0.125 0.125 0.125 0.125 0.125 0.125 0.125 0.125 0.125 0.125 0.125 0.125 0.125 0.125 0.125 0.125 0.125 0.125 0.125 0.125 0.125 0.125 0.125 0.125 0.125 0.125 0.125 0.125 
0.25 0.25 0.25 0.25 0.25 0.25 0.25 0.25 0.25 0.25 0.25 0.25 0.25 0.25 0.25 0.25 0.25 0.25 0.25 0.25 0.25 0.25 0.25 0.25 0.25 0.25 0.25 0.25 0.25 0.25 0.25 0.25 0.25 0.25 0.25 0.25 0.25 0.25 0.25 0.25 0.25 0.25 0.25 0.25 0.25 0.25 0.25 0.25 
0.375 0.375 0.375 0.375 0.375 0.375 0.375 0.375 0.375 0.375 0.375 0.375 0.375 0.375 0.375 0.375 0.375 0.375 0.375 0.375 0.375 0.375 0.375 0.375 0.375 0.375 0.375 0.375 0.375 0.375 0.375 0.375 0.375 0.375 0.375 0.375 0.375 0.375 0.375 0.375 0.375 0.375 0.375 0.375 0.375 0.375 0.375 0.375 
0.5 0.5 0.5 0.5 0.5 0.5 0.5 0.5 0.5 0.5 0.5 0.5 0.5 0.5 0.5 0.5 0.5 0.5 0.5 0.5 0.5 0.5 0.5 0.5 0.5 0.5 0.5 0.5 0.5 0.5 0.5 0.5 0.5 0.5 0.5 0.5 0.5 0.5 0.5 0.5 0.5 0.5 0.5 0.5 0.5 0.5 0.5 0.5 
0.625 0.625 0.625 0.625 0.625 0.625 0.625 0.625 0.625 0.625 0.625 0.625 0.625 0.625 0.625 0.625 0.625 0.625 0.625 0.625 0.625 0.625 0.625 0.625 0.625 0.625 0.625 0.625 0.625 0.625 0.625 0.625 0.625 0.625 0.625 0.625 0.625 0.625 0.625 0.625 0.625 0.625 0.625 0.625 0.625 0.625 0.625 0.625 
0.75 0.75 0.75 0.75 0.75 0.75 0.75 0.75 0.75 0.75 0.75 0.75 0.75 0.75 0.75 0.75 0.75 0.75 0.75 0.75 0.75 0.75 0.75 0.75 0.75 0.75 0.75 0.75 0.75 0.75 0.75 0.75 0.75 0.75 0.75 0.75 0.75 0.75 0.75 0.75 0.75 0.75 0.75 0.75 0.75 0.75 0.75 0.75 
0.875 0.875 0.875 0.875 0.875 0.875 0.875 0.875 0.875 0.875 0.875 0.875 0.875 0.875 0.875 0.875 0.875 0.875 0.875 0.875 0.875 0.875 0.875 0.875 0.875 0.875 0.875 0.875 0.875 0.875 0.875 0.875 0.875 0.875 0.875 0.875 0.875 0.875 0.875 0.875 0.875 0.875 0.875 0.875 0.875 0.875 0.875 0.875 
1 1 1 1 1 1 1 1 1 1 1 1 1 1 1 1 1 1 1 1 1 1 1 1 1 1 1 1 1 1 1 1 1 1 1 1 1 1 1 1 1 1 1 1 1 1 1 1 
